c nIsolatedPIs 32
c maxPI 96
p cnf 324 685
c gate 97 -21 -69 0
-21 -97 0
-69 -97 0
21 69 97 0
c gate 98 -20 -68 0
-20 -98 0
-68 -98 0
20 68 98 0
c gate 99 -97 -98 0
-97 -99 0
-98 -99 0
97 98 99 0
c gate 100 -19 -67 0
-19 -100 0
-67 -100 0
19 67 100 0
c gate 101 -18 -66 0
-18 -101 0
-66 -101 0
18 66 101 0
c gate 102 -100 -101 0
-100 -102 0
-101 -102 0
100 101 102 0
c gate 103 17 65 0
17 -103 0
65 -103 0
-17 -65 103 0
c gate 104 18 66 0
18 -104 0
66 -104 0
-18 -66 104 0
c gate 105 -103 -104 0
-103 -105 0
-104 -105 0
103 104 105 0
c gate 106 102 -105 0
102 -106 0
-105 -106 0
-102 105 106 0
c gate 107 19 67 0
19 -107 0
67 -107 0
-19 -67 107 0
c gate 108 20 68 0
20 -108 0
68 -108 0
-20 -68 108 0
c gate 109 -107 -108 0
-107 -109 0
-108 -109 0
107 108 109 0
c gate 110 -106 109 0
-106 -110 0
109 -110 0
106 -109 110 0
c gate 111 99 -110 0
99 -111 0
-110 -111 0
-99 110 111 0
c gate 112 21 69 0
21 -112 0
69 -112 0
-21 -69 112 0
c gate 113 23 71 0
23 -113 0
71 -113 0
-23 -71 113 0
c gate 114 22 70 0
22 -114 0
70 -114 0
-22 -70 114 0
c gate 115 -113 -114 0
-113 -115 0
-114 -115 0
113 114 115 0
c gate 116 -112 115 0
-112 -116 0
115 -116 0
112 -115 116 0
c gate 117 -111 116 0
-111 -117 0
116 -117 0
111 -116 117 0
c gate 118 12 60 0
12 -118 0
60 -118 0
-12 -60 118 0
c gate 119 11 59 0
11 -119 0
59 -119 0
-11 -59 119 0
c gate 120 -118 -119 0
-118 -120 0
-119 -120 0
118 119 120 0
c gate 121 -12 -60 0
-12 -121 0
-60 -121 0
12 60 121 0
c gate 122 -120 -121 0
-120 -122 0
-121 -122 0
120 121 122 0
c gate 123 -11 -59 0
-11 -123 0
-59 -123 0
11 59 123 0
c gate 124 -10 -58 0
-10 -124 0
-58 -124 0
10 58 124 0
c gate 125 -121 -124 0
-121 -125 0
-124 -125 0
121 124 125 0
c gate 126 -123 125 0
-123 -126 0
125 -126 0
123 -125 126 0
c gate 127 120 126 0
120 -127 0
126 -127 0
-120 -126 127 0
c gate 128 10 58 0
10 -128 0
58 -128 0
-10 -58 128 0
c gate 129 9 57 0
9 -129 0
57 -129 0
-9 -57 129 0
c gate 130 -128 -129 0
-128 -130 0
-129 -130 0
128 129 130 0
c gate 131 2 50 0
2 -131 0
50 -131 0
-2 -50 131 0
c gate 132 1 49 0
1 -132 0
49 -132 0
-1 -49 132 0
c gate 133 -131 -132 0
-131 -133 0
-132 -133 0
131 132 133 0
c gate 134 -3 -51 0
-3 -134 0
-51 -134 0
3 51 134 0
c gate 135 -2 -50 0
-2 -135 0
-50 -135 0
2 50 135 0
c gate 136 -134 -135 0
-134 -136 0
-135 -136 0
134 135 136 0
c gate 137 -133 136 0
-133 -137 0
136 -137 0
133 -136 137 0
c gate 138 4 52 0
4 -138 0
52 -138 0
-4 -52 138 0
c gate 139 3 51 0
3 -139 0
51 -139 0
-3 -51 139 0
c gate 140 -138 -139 0
-138 -140 0
-139 -140 0
138 139 140 0
c gate 141 -137 140 0
-137 -141 0
140 -141 0
137 -140 141 0
c gate 142 -5 -53 0
-5 -142 0
-53 -142 0
5 53 142 0
c gate 143 -4 -52 0
-4 -143 0
-52 -143 0
4 52 143 0
c gate 144 -142 -143 0
-142 -144 0
-143 -144 0
142 143 144 0
c gate 145 -141 144 0
-141 -145 0
144 -145 0
141 -144 145 0
c gate 146 6 54 0
6 -146 0
54 -146 0
-6 -54 146 0
c gate 147 5 53 0
5 -147 0
53 -147 0
-5 -53 147 0
c gate 148 -146 -147 0
-146 -148 0
-147 -148 0
146 147 148 0
c gate 149 -145 148 0
-145 -149 0
148 -149 0
145 -148 149 0
c gate 150 -7 -55 0
-7 -150 0
-55 -150 0
7 55 150 0
c gate 151 -6 -54 0
-6 -151 0
-54 -151 0
6 54 151 0
c gate 152 -150 -151 0
-150 -152 0
-151 -152 0
150 151 152 0
c gate 153 -149 152 0
-149 -153 0
152 -153 0
149 -152 153 0
c gate 154 7 55 0
7 -154 0
55 -154 0
-7 -55 154 0
c gate 155 8 56 0
8 -155 0
56 -155 0
-8 -56 155 0
c gate 156 -154 -155 0
-154 -156 0
-155 -156 0
154 155 156 0
c gate 157 -153 156 0
-153 -157 0
156 -157 0
153 -156 157 0
c gate 158 -9 -57 0
-9 -158 0
-57 -158 0
9 57 158 0
c gate 159 -8 -56 0
-8 -159 0
-56 -159 0
8 56 159 0
c gate 160 -158 -159 0
-158 -160 0
-159 -160 0
158 159 160 0
c gate 161 -157 160 0
-157 -161 0
160 -161 0
157 -160 161 0
c gate 162 130 -161 0
130 -162 0
-161 -162 0
-130 161 162 0
c gate 163 127 -162 0
127 -163 0
-162 -163 0
-127 162 163 0
c gate 164 -122 -163 0
-122 -164 0
-163 -164 0
122 163 164 0
c gate 165 13 61 0
13 -165 0
61 -165 0
-13 -61 165 0
c gate 166 14 62 0
14 -166 0
62 -166 0
-14 -62 166 0
c gate 167 -165 -166 0
-165 -167 0
-166 -167 0
165 166 167 0
c gate 168 -14 -62 0
-14 -168 0
-62 -168 0
14 62 168 0
c gate 169 -13 -61 0
-13 -169 0
-61 -169 0
13 61 169 0
c gate 170 -168 -169 0
-168 -170 0
-169 -170 0
168 169 170 0
c gate 171 167 170 0
167 -171 0
170 -171 0
-167 -170 171 0
c gate 172 15 63 0
15 -172 0
63 -172 0
-15 -63 172 0
c gate 173 16 64 0
16 -173 0
64 -173 0
-16 -64 173 0
c gate 174 -172 -173 0
-172 -174 0
-173 -174 0
172 173 174 0
c gate 175 -16 -64 0
-16 -175 0
-64 -175 0
16 64 175 0
c gate 176 -15 -63 0
-15 -176 0
-63 -176 0
15 63 176 0
c gate 177 -175 -176 0
-175 -177 0
-176 -177 0
175 176 177 0
c gate 178 174 177 0
174 -178 0
177 -178 0
-174 -177 178 0
c gate 179 171 178 0
171 -179 0
178 -179 0
-171 -178 179 0
c gate 180 -164 179 0
-164 -180 0
179 -180 0
164 -179 180 0
c gate 181 -167 -168 0
-167 -181 0
-168 -181 0
167 168 181 0
c gate 182 -176 181 0
-176 -182 0
181 -182 0
176 -181 182 0
c gate 183 174 -182 0
174 -183 0
-182 -183 0
-174 182 183 0
c gate 184 -175 -183 0
-175 -184 0
-183 -184 0
175 183 184 0
c gate 185 -180 -184 0
-180 -185 0
-184 -185 0
180 184 185 0
c gate 186 -17 -65 0
-17 -186 0
-65 -186 0
17 65 186 0
c gate 187 99 -186 0
99 -187 0
-186 -187 0
-99 186 187 0
c gate 188 102 187 0
102 -188 0
187 -188 0
-102 -187 188 0
c gate 189 110 188 0
110 -189 0
188 -189 0
-110 -188 189 0
c gate 190 -185 189 0
-185 -190 0
189 -190 0
185 -189 190 0
c gate 191 117 -190 0
117 -191 0
-190 -191 0
-117 190 191 0
c gate 192 -24 -72 0
-24 -192 0
-72 -192 0
24 72 192 0
c gate 193 -22 -70 0
-22 -193 0
-70 -193 0
22 70 193 0
c gate 194 -23 -71 0
-23 -194 0
-71 -194 0
23 71 194 0
c gate 195 -193 -194 0
-193 -195 0
-194 -195 0
193 194 195 0
c gate 196 -113 -195 0
-113 -196 0
-195 -196 0
113 195 196 0
c gate 197 -192 -196 0
-192 -197 0
-196 -197 0
192 196 197 0
c gate 198 24 72 0
24 -198 0
72 -198 0
-24 -72 198 0
c gate 199 -117 197 0
-117 -199 0
197 -199 0
117 -197 199 0
c gate 200 -198 -199 0
-198 -200 0
-199 -200 0
198 199 200 0
c gate 201 197 200 0
197 -201 0
200 -201 0
-197 -200 201 0
c gate 202 -191 201 0
-191 -202 0
201 -202 0
191 -201 202 0
c gate 203 127 -130 0
127 -203 0
-130 -203 0
-127 130 203 0
c gate 204 -122 -203 0
-122 -204 0
-203 -204 0
122 203 204 0
c gate 205 171 -204 0
171 -205 0
-204 -205 0
-171 204 205 0
c gate 206 -181 -205 0
-181 -206 0
-205 -206 0
181 205 206 0
c gate 207 177 195 0
177 -207 0
195 -207 0
-177 -195 207 0
c gate 208 189 207 0
189 -208 0
207 -208 0
-189 -207 208 0
c gate 209 117 208 0
117 -209 0
208 -209 0
-117 -208 209 0
c gate 210 -206 209 0
-206 -210 0
209 -210 0
206 -209 210 0
c gate 211 185 210 0
185 -211 0
210 -211 0
-185 -210 211 0
c gate 212 180 206 0
180 -212 0
206 -212 0
-180 -206 212 0
c gate 213 37 85 0
37 -213 0
85 -213 0
-37 -85 213 0
c gate 214 38 86 0
38 -214 0
86 -214 0
-38 -86 214 0
c gate 215 -213 -214 0
-213 -215 0
-214 -215 0
213 214 215 0
c gate 216 -39 -87 0
-39 -216 0
-87 -216 0
39 87 216 0
c gate 217 -38 -86 0
-38 -217 0
-86 -217 0
38 86 217 0
c gate 218 -40 -88 0
-40 -218 0
-88 -218 0
40 88 218 0
c gate 219 -217 -218 0
-217 -219 0
-218 -219 0
217 218 219 0
c gate 220 -216 219 0
-216 -220 0
219 -220 0
216 -219 220 0
c gate 221 -215 220 0
-215 -221 0
220 -221 0
215 -220 221 0
c gate 222 40 88 0
40 -222 0
88 -222 0
-40 -88 222 0
c gate 223 39 87 0
39 -223 0
87 -223 0
-39 -87 223 0
c gate 224 -218 223 0
-218 -224 0
223 -224 0
218 -223 224 0
c gate 225 -222 -224 0
-222 -225 0
-224 -225 0
222 224 225 0
c gate 226 -221 225 0
-221 -226 0
225 -226 0
221 -225 226 0
c gate 227 36 84 0
36 -227 0
84 -227 0
-36 -84 227 0
c gate 228 -35 -83 0
-35 -228 0
-83 -228 0
35 83 228 0
c gate 229 -227 228 0
-227 -229 0
228 -229 0
227 -228 229 0
c gate 230 -37 -85 0
-37 -230 0
-85 -230 0
37 85 230 0
c gate 231 -36 -84 0
-36 -231 0
-84 -231 0
36 84 231 0
c gate 232 -230 -231 0
-230 -232 0
-231 -232 0
230 231 232 0
c gate 233 -229 232 0
-229 -233 0
232 -233 0
229 -232 233 0
c gate 234 220 233 0
220 -234 0
233 -234 0
-220 -233 234 0
c gate 235 226 -234 0
226 -235 0
-234 -235 0
-226 234 235 0
c gate 236 41 89 0
41 -236 0
89 -236 0
-41 -89 236 0
c gate 237 48 96 0
48 -237 0
96 -237 0
-48 -96 237 0
c gate 238 -236 -237 0
-236 -238 0
-237 -238 0
236 237 238 0
c gate 239 47 95 0
47 -239 0
95 -239 0
-47 -95 239 0
c gate 240 -42 -90 0
-42 -240 0
-90 -240 0
42 90 240 0
c gate 241 -239 -240 0
-239 -241 0
-240 -241 0
239 240 241 0
c gate 242 238 241 0
238 -242 0
241 -242 0
-238 -241 242 0
c gate 243 -46 -94 0
-46 -243 0
-94 -243 0
46 94 243 0
c gate 244 -45 -93 0
-45 -244 0
-93 -244 0
45 93 244 0
c gate 245 -243 -244 0
-243 -245 0
-244 -245 0
243 244 245 0
c gate 246 43 91 0
43 -246 0
91 -246 0
-43 -91 246 0
c gate 247 -48 -96 0
-48 -247 0
-96 -247 0
48 96 247 0
c gate 248 -246 -247 0
-246 -248 0
-247 -248 0
246 247 248 0
c gate 249 245 248 0
245 -249 0
248 -249 0
-245 -248 249 0
c gate 250 242 249 0
242 -250 0
249 -250 0
-242 -249 250 0
c gate 251 45 93 0
45 -251 0
93 -251 0
-45 -93 251 0
c gate 252 -47 -95 0
-47 -252 0
-95 -252 0
47 95 252 0
c gate 253 -251 -252 0
-251 -253 0
-252 -253 0
251 252 253 0
c gate 254 -44 -92 0
-44 -254 0
-92 -254 0
44 92 254 0
c gate 255 -41 -89 0
-41 -255 0
-89 -255 0
41 89 255 0
c gate 256 -254 -255 0
-254 -256 0
-255 -256 0
254 255 256 0
c gate 257 253 256 0
253 -257 0
256 -257 0
-253 -256 257 0
c gate 258 44 92 0
44 -258 0
92 -258 0
-44 -92 258 0
c gate 259 42 90 0
42 -259 0
90 -259 0
-42 -90 259 0
c gate 260 -258 -259 0
-258 -260 0
-259 -260 0
258 259 260 0
c gate 261 -43 -91 0
-43 -261 0
-91 -261 0
43 91 261 0
c gate 262 46 94 0
46 -262 0
94 -262 0
-46 -94 262 0
c gate 263 -261 -262 0
-261 -263 0
-262 -263 0
261 262 263 0
c gate 264 260 263 0
260 -264 0
263 -264 0
-260 -263 264 0
c gate 265 257 264 0
257 -265 0
264 -265 0
-257 -264 265 0
c gate 266 250 265 0
250 -266 0
265 -266 0
-250 -265 266 0
c gate 267 -32 -80 0
-32 -267 0
-80 -267 0
32 80 267 0
c gate 268 -31 -79 0
-31 -268 0
-79 -268 0
31 79 268 0
c gate 269 -30 -78 0
-30 -269 0
-78 -269 0
30 78 269 0
c gate 270 -268 -269 0
-268 -270 0
-269 -270 0
268 269 270 0
c gate 271 29 77 0
29 -271 0
77 -271 0
-29 -77 271 0
c gate 272 30 78 0
30 -272 0
78 -272 0
-30 -78 272 0
c gate 273 -271 -272 0
-271 -273 0
-272 -273 0
271 272 273 0
c gate 274 270 -273 0
270 -274 0
-273 -274 0
-270 273 274 0
c gate 275 31 79 0
31 -275 0
79 -275 0
-31 -79 275 0
c gate 276 32 80 0
32 -276 0
80 -276 0
-32 -80 276 0
c gate 277 -275 -276 0
-275 -277 0
-276 -277 0
275 276 277 0
c gate 278 -274 277 0
-274 -278 0
277 -278 0
274 -277 278 0
c gate 279 -267 -278 0
-267 -279 0
-278 -279 0
267 278 279 0
c gate 280 -29 -77 0
-29 -280 0
-77 -280 0
29 77 280 0
c gate 281 -28 -76 0
-28 -281 0
-76 -281 0
28 76 281 0
c gate 282 -267 -281 0
-267 -282 0
-281 -282 0
267 281 282 0
c gate 283 -280 282 0
-280 -283 0
282 -283 0
280 -282 283 0
c gate 284 270 283 0
270 -284 0
283 -284 0
-270 -283 284 0
c gate 285 278 284 0
278 -285 0
284 -285 0
-278 -284 285 0
c gate 286 26 74 0
26 -286 0
74 -286 0
-26 -74 286 0
c gate 287 25 73 0
25 -287 0
73 -287 0
-25 -73 287 0
c gate 288 -286 -287 0
-286 -288 0
-287 -288 0
286 287 288 0
c gate 289 -27 -75 0
-27 -289 0
-75 -289 0
27 75 289 0
c gate 290 -26 -74 0
-26 -290 0
-74 -290 0
26 74 290 0
c gate 291 -289 -290 0
-289 -291 0
-290 -291 0
289 290 291 0
c gate 292 -288 291 0
-288 -292 0
291 -292 0
288 -291 292 0
c gate 293 27 75 0
27 -293 0
75 -293 0
-27 -75 293 0
c gate 294 28 76 0
28 -294 0
76 -294 0
-28 -76 294 0
c gate 295 -293 -294 0
-293 -295 0
-294 -295 0
293 294 295 0
c gate 296 -292 295 0
-292 -296 0
295 -296 0
292 -295 296 0
c gate 297 285 -296 0
285 -297 0
-296 -297 0
-285 296 297 0
c gate 298 -279 -297 0
-279 -298 0
-297 -298 0
279 297 298 0
c gate 299 34 82 0
34 -299 0
82 -299 0
-34 -82 299 0
c gate 300 -34 -82 0
-34 -300 0
-82 -300 0
34 82 300 0
c gate 301 33 81 0
33 -301 0
81 -301 0
-33 -81 301 0
c gate 302 -300 301 0
-300 -302 0
301 -302 0
300 -301 302 0
c gate 303 -299 -302 0
-299 -303 0
-302 -303 0
299 302 303 0
c gate 304 -33 -81 0
-33 -304 0
-81 -304 0
33 81 304 0
c gate 305 -300 -304 0
-300 -305 0
-304 -305 0
300 304 305 0
c gate 306 303 305 0
303 -306 0
305 -306 0
-303 -305 306 0
c gate 307 -298 306 0
-298 -307 0
306 -307 0
298 -306 307 0
c gate 308 35 83 0
35 -308 0
83 -308 0
-35 -83 308 0
c gate 309 -231 308 0
-231 -309 0
308 -309 0
231 -308 309 0
c gate 310 -227 -309 0
-227 -310 0
-309 -310 0
227 309 310 0
c gate 311 303 310 0
303 -311 0
310 -311 0
-303 -310 311 0
c gate 312 226 311 0
226 -312 0
311 -312 0
-226 -311 312 0
c gate 313 -307 312 0
-307 -313 0
312 -313 0
307 -312 313 0
c gate 314 -266 -313 0
-266 -314 0
-313 -314 0
266 313 314 0
c gate 315 -235 -314 0
-235 -315 0
-314 -315 0
235 314 315 0
c gate 316 -25 -73 0
-25 -316 0
-73 -316 0
25 73 316 0
c gate 317 291 -316 0
291 -317 0
-316 -317 0
-291 316 317 0
c gate 318 296 317 0
296 -318 0
317 -318 0
-296 -317 318 0
c gate 319 285 318 0
285 -319 0
318 -319 0
-285 -318 319 0
c gate 320 -200 319 0
-200 -320 0
319 -320 0
200 -319 320 0
c gate 321 -315 -320 0
-315 -321 0
-320 -321 0
315 320 321 0
c gate 322 -212 321 0
-212 -322 0
321 -322 0
212 -321 322 0
c gate 323 -211 322 0
-211 -323 0
322 -323 0
211 -322 323 0
c gate 324 -202 323 0
-202 -324 0
323 -324 0
202 -323 324 0
c PO
-324 0
